p tw 144 26641 2 
1 73 
1 76 
1 77 
1 79 
1 81 
1 83 
1 86 
1 88 
1 89 
1 92 
1 94 
1 95 
1 97 
1 100 
1 101 
1 103 
1 106 
1 108 
1 109 
1 112 
1 113 
1 115 
1 117 
1 119 
1 122 
1 123 
1 125 
1 128 
1 130 
1 132 
1 133 
1 136 
1 138 
1 140 
1 141 
1 144 
2 74 
2 75 
2 78 
2 80 
2 82 
2 84 
2 85 
2 87 
2 90 
2 91 
2 93 
2 96 
2 98 
2 99 
2 102 
2 104 
2 105 
2 107 
2 110 
2 111 
2 114 
2 116 
2 118 
2 120 
2 121 
2 124 
2 126 
2 127 
2 129 
2 131 
2 134 
2 135 
2 137 
2 139 
2 142 
2 143 
3 4 
3 73 
3 76 
3 78 
3 80 
3 82 
3 84 
3 85 
3 87 
3 89 
3 92 
3 93 
3 95 
3 97 
3 99 
3 102 
3 104 
3 106 
3 108 
3 109 
3 112 
3 113 
3 115 
3 117 
3 120 
3 121 
3 124 
3 125 
3 127 
3 129 
3 132 
3 134 
3 136 
3 137 
3 140 
3 141 
3 143 
4 74 
4 75 
4 77 
4 79 
4 81 
4 83 
4 86 
4 88 
4 90 
4 91 
4 94 
4 96 
4 98 
4 100 
4 101 
4 103 
4 105 
4 107 
4 110 
4 111 
4 114 
4 116 
4 118 
4 119 
4 122 
4 123 
4 126 
4 128 
4 130 
4 131 
4 133 
4 135 
4 138 
4 139 
4 142 
4 144 
5 6 
5 73 
5 76 
5 78 
5 79 
5 81 
5 84 
5 86 
5 87 
5 89 
5 91 
5 93 
5 95 
5 97 
5 100 
5 101 
5 104 
5 106 
5 107 
5 110 
5 111 
5 114 
5 116 
5 118 
5 119 
5 121 
5 123 
5 126 
5 127 
5 129 
5 132 
5 134 
5 136 
5 138 
5 140 
5 142 
5 144 
6 74 
6 75 
6 77 
6 80 
6 82 
6 83 
6 85 
6 88 
6 90 
6 92 
6 94 
6 96 
6 98 
6 99 
6 102 
6 103 
6 105 
6 108 
6 109 
6 112 
6 113 
6 115 
6 117 
6 120 
6 122 
6 124 
6 125 
6 128 
6 130 
6 131 
6 133 
6 135 
6 137 
6 139 
6 141 
6 143 
7 8 
7 74 
7 76 
7 77 
7 79 
7 81 
7 83 
7 85 
7 87 
7 90 
7 91 
7 93 
7 95 
7 97 
7 99 
7 102 
7 103 
7 106 
7 107 
7 109 
7 111 
7 114 
7 116 
7 117 
7 119 
7 121 
7 124 
7 125 
7 128 
7 129 
7 131 
7 133 
7 136 
7 137 
7 139 
7 141 
7 144 
8 73 
8 75 
8 78 
8 80 
8 82 
8 84 
8 86 
8 88 
8 89 
8 92 
8 94 
8 96 
8 98 
8 100 
8 101 
8 104 
8 105 
8 108 
8 110 
8 112 
8 113 
8 115 
8 118 
8 120 
8 122 
8 123 
8 126 
8 127 
8 130 
8 132 
8 134 
8 135 
8 138 
8 140 
8 142 
8 143 
9 10 
9 73 
9 75 
9 78 
9 80 
9 82 
9 83 
9 86 
9 88 
9 90 
9 91 
9 94 
9 95 
9 97 
9 100 
9 101 
9 103 
9 106 
9 108 
9 109 
9 111 
9 114 
9 115 
9 118 
9 120 
9 122 
9 124 
9 125 
9 127 
9 129 
9 131 
9 134 
9 136 
9 137 
9 139 
9 142 
9 144 
10 74 
10 76 
10 77 
10 79 
10 81 
10 84 
10 85 
10 87 
10 89 
10 92 
10 93 
10 96 
10 98 
10 99 
10 102 
10 104 
10 105 
10 107 
10 110 
10 112 
10 113 
10 116 
10 117 
10 119 
10 121 
10 123 
10 126 
10 128 
10 130 
10 132 
10 133 
10 135 
10 138 
10 140 
10 141 
10 143 
11 12 
11 74 
11 75 
11 78 
11 79 
11 81 
11 83 
11 85 
11 87 
11 89 
11 92 
11 94 
11 96 
11 97 
11 100 
11 102 
11 104 
11 106 
11 107 
11 109 
11 111 
11 114 
11 115 
11 117 
11 120 
11 122 
11 123 
11 126 
11 128 
11 130 
11 132 
11 134 
11 136 
11 137 
11 139 
11 142 
11 143 
12 73 
12 76 
12 77 
12 80 
12 82 
12 84 
12 86 
12 88 
12 90 
12 91 
12 93 
12 95 
12 98 
12 99 
12 101 
12 103 
12 105 
12 108 
12 110 
12 112 
12 113 
12 116 
12 118 
12 119 
12 121 
12 124 
12 125 
12 127 
12 129 
12 131 
12 133 
12 135 
12 138 
12 140 
12 141 
12 144 
13 14 
13 74 
13 76 
13 77 
13 79 
13 81 
13 84 
13 85 
13 88 
13 90 
13 92 
13 93 
13 95 
13 98 
13 100 
13 101 
13 103 
13 105 
13 108 
13 109 
13 111 
13 114 
13 115 
13 118 
13 120 
13 121 
13 124 
13 126 
13 127 
13 130 
13 132 
13 133 
13 136 
13 137 
13 140 
13 142 
13 143 
14 73 
14 75 
14 78 
14 80 
14 82 
14 83 
14 86 
14 87 
14 89 
14 91 
14 94 
14 96 
14 97 
14 99 
14 102 
14 104 
14 106 
14 107 
14 110 
14 112 
14 113 
14 116 
14 117 
14 119 
14 122 
14 123 
14 125 
14 128 
14 129 
14 131 
14 134 
14 135 
14 138 
14 139 
14 141 
14 144 
15 16 
15 73 
15 76 
15 78 
15 80 
15 81 
15 84 
15 85 
15 88 
15 90 
15 91 
15 94 
15 95 
15 98 
15 99 
15 102 
15 104 
15 106 
15 108 
15 110 
15 111 
15 114 
15 115 
15 117 
15 119 
15 122 
15 123 
15 126 
15 127 
15 130 
15 131 
15 133 
15 136 
15 138 
15 139 
15 141 
15 143 
16 74 
16 75 
16 77 
16 79 
16 82 
16 83 
16 86 
16 87 
16 89 
16 92 
16 93 
16 96 
16 97 
16 100 
16 101 
16 103 
16 105 
16 107 
16 109 
16 112 
16 113 
16 116 
16 118 
16 120 
16 121 
16 124 
16 125 
16 128 
16 129 
16 132 
16 134 
16 135 
16 137 
16 140 
16 142 
16 144 
17 18 
17 74 
17 76 
17 77 
17 80 
17 82 
17 84 
17 86 
17 88 
17 89 
17 92 
17 94 
17 96 
17 98 
17 100 
17 101 
17 103 
17 106 
17 107 
17 109 
17 112 
17 114 
17 116 
17 117 
17 119 
17 121 
17 123 
17 126 
17 127 
17 129 
17 131 
17 134 
17 136 
17 137 
17 139 
17 141 
17 143 
18 73 
18 75 
18 78 
18 79 
18 81 
18 83 
18 85 
18 87 
18 90 
18 91 
18 93 
18 95 
18 97 
18 99 
18 102 
18 104 
18 105 
18 108 
18 110 
18 111 
18 113 
18 115 
18 118 
18 120 
18 122 
18 124 
18 125 
18 128 
18 130 
18 132 
18 133 
18 135 
18 138 
18 140 
18 142 
18 144 
19 20 
19 73 
19 76 
19 78 
19 79 
19 82 
19 83 
19 85 
19 88 
19 89 
19 92 
19 94 
19 95 
19 98 
19 99 
19 102 
19 103 
19 105 
19 108 
19 109 
19 111 
19 114 
19 116 
19 118 
19 119 
19 121 
19 123 
19 125 
19 128 
19 129 
19 132 
19 134 
19 135 
19 138 
19 139 
19 142 
19 143 
20 74 
20 75 
20 77 
20 80 
20 81 
20 84 
20 86 
20 87 
20 90 
20 91 
20 93 
20 96 
20 97 
20 100 
20 101 
20 104 
20 106 
20 107 
20 110 
20 112 
20 113 
20 115 
20 117 
20 120 
20 122 
20 124 
20 126 
20 127 
20 130 
20 131 
20 133 
20 136 
20 137 
20 140 
20 141 
20 144 
21 22 
21 73 
21 75 
21 77 
21 80 
21 81 
21 84 
21 86 
21 87 
21 90 
21 92 
21 94 
21 95 
21 97 
21 99 
21 102 
21 103 
21 106 
21 107 
21 109 
21 112 
21 114 
21 115 
21 118 
21 120 
21 121 
21 123 
21 126 
21 128 
21 129 
21 131 
21 133 
21 135 
21 138 
21 140 
21 142 
21 143 
22 74 
22 76 
22 78 
22 79 
22 82 
22 83 
22 85 
22 88 
22 89 
22 91 
22 93 
22 96 
22 98 
22 100 
22 101 
22 104 
22 105 
22 108 
22 110 
22 111 
22 113 
22 116 
22 117 
22 119 
22 122 
22 124 
22 125 
22 127 
22 130 
22 132 
22 134 
22 136 
22 137 
22 139 
22 141 
22 144 
23 24 
23 73 
23 75 
23 78 
23 79 
23 81 
23 84 
23 85 
23 88 
23 89 
23 92 
23 94 
23 95 
23 97 
23 100 
23 101 
23 104 
23 105 
23 108 
23 110 
23 112 
23 114 
23 116 
23 117 
23 120 
23 121 
23 124 
23 126 
23 128 
23 129 
23 131 
23 133 
23 135 
23 137 
23 139 
23 141 
23 144 
24 74 
24 76 
24 77 
24 80 
24 82 
24 83 
24 86 
24 87 
24 90 
24 91 
24 93 
24 96 
24 98 
24 99 
24 102 
24 103 
24 106 
24 107 
24 109 
24 111 
24 113 
24 115 
24 118 
24 119 
24 122 
24 123 
24 125 
24 127 
24 130 
24 132 
24 134 
24 136 
24 138 
24 140 
24 142 
24 143 
25 26 
25 73 
25 75 
25 77 
25 79 
25 82 
25 84 
25 86 
25 88 
25 90 
25 92 
25 93 
25 95 
25 98 
25 99 
25 101 
25 104 
25 106 
25 107 
25 110 
25 111 
25 113 
25 116 
25 117 
25 120 
25 122 
25 123 
25 125 
25 128 
25 129 
25 132 
25 133 
25 136 
25 137 
25 139 
25 142 
25 143 
26 74 
26 76 
26 78 
26 80 
26 81 
26 83 
26 85 
26 87 
26 89 
26 91 
26 94 
26 96 
26 97 
26 100 
26 102 
26 103 
26 105 
26 108 
26 109 
26 112 
26 114 
26 115 
26 118 
26 119 
26 121 
26 124 
26 126 
26 127 
26 130 
26 131 
26 134 
26 135 
26 138 
26 140 
26 141 
26 144 
27 28 
27 73 
27 75 
27 77 
27 80 
27 82 
27 84 
27 85 
27 88 
27 89 
27 92 
27 93 
27 96 
27 97 
27 100 
27 102 
27 103 
27 106 
27 107 
27 110 
27 111 
27 114 
27 115 
27 117 
27 119 
27 121 
27 124 
27 125 
27 127 
27 130 
27 132 
27 133 
27 135 
27 138 
27 139 
27 142 
27 144 
28 74 
28 76 
28 78 
28 79 
28 81 
28 83 
28 86 
28 87 
28 90 
28 91 
28 94 
28 95 
28 98 
28 99 
28 101 
28 104 
28 105 
28 108 
28 109 
28 112 
28 113 
28 116 
28 118 
28 120 
28 122 
28 123 
28 126 
28 128 
28 129 
28 131 
28 134 
28 136 
28 137 
28 140 
28 141 
28 143 
29 30 
29 74 
29 76 
29 78 
29 80 
29 81 
29 84 
29 86 
29 88 
29 90 
29 92 
29 93 
29 95 
29 98 
29 100 
29 102 
29 104 
29 106 
29 107 
29 109 
29 112 
29 114 
29 116 
29 118 
29 120 
29 122 
29 124 
29 125 
29 128 
29 130 
29 132 
29 134 
29 135 
29 138 
29 139 
29 141 
29 144 
30 73 
30 75 
30 77 
30 79 
30 82 
30 83 
30 85 
30 87 
30 89 
30 91 
30 94 
30 96 
30 97 
30 99 
30 101 
30 103 
30 105 
30 108 
30 110 
30 111 
30 113 
30 115 
30 117 
30 119 
30 121 
30 123 
30 126 
30 127 
30 129 
30 131 
30 133 
30 136 
30 137 
30 140 
30 142 
30 143 
31 32 
31 73 
31 76 
31 77 
31 80 
31 81 
31 83 
31 85 
31 88 
31 89 
31 92 
31 93 
31 95 
31 97 
31 99 
31 102 
31 103 
31 105 
31 107 
31 110 
31 112 
31 113 
31 116 
31 118 
31 120 
31 122 
31 123 
31 126 
31 127 
31 130 
31 131 
31 134 
31 136 
31 137 
31 139 
31 142 
31 144 
32 74 
32 75 
32 78 
32 79 
32 82 
32 84 
32 86 
32 87 
32 90 
32 91 
32 94 
32 96 
32 98 
32 100 
32 101 
32 104 
32 106 
32 108 
32 109 
32 111 
32 114 
32 115 
32 117 
32 119 
32 121 
32 124 
32 125 
32 128 
32 129 
32 132 
32 133 
32 135 
32 138 
32 140 
32 141 
32 143 
33 34 
33 73 
33 75 
33 78 
33 79 
33 81 
33 84 
33 85 
33 87 
33 90 
33 92 
33 93 
33 96 
33 98 
33 99 
33 101 
33 103 
33 106 
33 108 
33 109 
33 112 
33 114 
33 116 
33 117 
33 119 
33 122 
33 123 
33 125 
33 127 
33 130 
33 131 
33 134 
33 135 
33 137 
33 140 
33 142 
33 144 
34 74 
34 76 
34 77 
34 80 
34 82 
34 83 
34 86 
34 88 
34 89 
34 91 
34 94 
34 95 
34 97 
34 100 
34 102 
34 104 
34 105 
34 107 
34 110 
34 111 
34 113 
34 115 
34 118 
34 120 
34 121 
34 124 
34 126 
34 128 
34 129 
34 132 
34 133 
34 136 
34 138 
34 139 
34 141 
34 143 
35 36 
35 73 
35 76 
35 77 
35 79 
35 81 
35 84 
35 86 
35 87 
35 89 
35 91 
35 93 
35 96 
35 98 
35 100 
35 102 
35 103 
35 105 
35 108 
35 110 
35 112 
35 114 
35 115 
35 117 
35 120 
35 122 
35 124 
35 125 
35 128 
35 129 
35 131 
35 134 
35 136 
35 138 
35 139 
35 142 
35 143 
36 74 
36 75 
36 78 
36 80 
36 82 
36 83 
36 85 
36 88 
36 90 
36 92 
36 94 
36 95 
36 97 
36 99 
36 101 
36 104 
36 106 
36 107 
36 109 
36 111 
36 113 
36 116 
36 118 
36 119 
36 121 
36 123 
36 126 
36 127 
36 130 
36 132 
36 133 
36 135 
36 137 
36 140 
36 141 
36 144 
37 38 
37 73 
37 76 
37 77 
37 80 
37 82 
37 83 
37 85 
37 87 
37 90 
37 92 
37 94 
37 96 
37 98 
37 100 
37 102 
37 104 
37 106 
37 108 
37 110 
37 112 
37 114 
37 116 
37 118 
37 119 
37 122 
37 124 
37 126 
37 128 
37 129 
37 132 
37 133 
37 136 
37 137 
37 140 
37 142 
37 144 
38 74 
38 75 
38 78 
38 79 
38 81 
38 84 
38 86 
38 88 
38 89 
38 91 
38 93 
38 95 
38 97 
38 99 
38 101 
38 103 
38 105 
38 107 
38 109 
38 111 
38 113 
38 115 
38 117 
38 120 
38 121 
38 123 
38 125 
38 127 
38 130 
38 131 
38 134 
38 135 
38 138 
38 139 
38 141 
38 143 
39 40 
39 73 
39 75 
39 77 
39 79 
39 81 
39 84 
39 85 
39 88 
39 90 
39 92 
39 94 
39 96 
39 97 
39 100 
39 102 
39 104 
39 105 
39 107 
39 109 
39 111 
39 113 
39 116 
39 118 
39 119 
39 122 
39 124 
39 125 
39 127 
39 129 
39 131 
39 134 
39 136 
39 138 
39 140 
39 141 
39 143 
40 74 
40 76 
40 78 
40 80 
40 82 
40 83 
40 86 
40 87 
40 89 
40 91 
40 93 
40 95 
40 98 
40 99 
40 101 
40 103 
40 106 
40 108 
40 110 
40 112 
40 114 
40 115 
40 117 
40 120 
40 121 
40 123 
40 126 
40 128 
40 130 
40 132 
40 133 
40 135 
40 137 
40 139 
40 142 
40 144 
41 42 
41 74 
41 76 
41 78 
41 79 
41 82 
41 84 
41 85 
41 87 
41 90 
41 92 
41 94 
41 96 
41 97 
41 99 
41 101 
41 103 
41 105 
41 107 
41 110 
41 112 
41 114 
41 115 
41 118 
41 120 
41 122 
41 123 
41 125 
41 127 
41 129 
41 132 
41 133 
41 136 
41 138 
41 139 
41 141 
41 144 
42 73 
42 75 
42 77 
42 80 
42 81 
42 83 
42 86 
42 88 
42 89 
42 91 
42 93 
42 95 
42 98 
42 100 
42 102 
42 104 
42 106 
42 108 
42 109 
42 111 
42 113 
42 116 
42 117 
42 119 
42 121 
42 124 
42 126 
42 128 
42 130 
42 131 
42 134 
42 135 
42 137 
42 140 
42 142 
42 143 
43 44 
43 73 
43 76 
43 78 
43 80 
43 82 
43 83 
43 85 
43 88 
43 90 
43 91 
43 93 
43 96 
43 97 
43 100 
43 101 
43 104 
43 105 
43 107 
43 109 
43 112 
43 114 
43 116 
43 117 
43 120 
43 121 
43 123 
43 125 
43 128 
43 130 
43 131 
43 133 
43 136 
43 138 
43 140 
43 142 
43 143 
44 74 
44 75 
44 77 
44 79 
44 81 
44 84 
44 86 
44 87 
44 89 
44 92 
44 94 
44 95 
44 98 
44 99 
44 102 
44 103 
44 106 
44 108 
44 110 
44 111 
44 113 
44 115 
44 118 
44 119 
44 122 
44 124 
44 126 
44 127 
44 129 
44 132 
44 134 
44 135 
44 137 
44 139 
44 141 
44 144 
45 46 
45 73 
45 75 
45 78 
45 79 
45 81 
45 83 
45 86 
45 88 
45 89 
45 91 
45 94 
45 96 
45 98 
45 99 
45 102 
45 103 
45 106 
45 107 
45 110 
45 112 
45 114 
45 116 
45 118 
45 120 
45 121 
45 124 
45 125 
45 127 
45 130 
45 132 
45 133 
45 136 
45 137 
45 140 
45 141 
45 143 
46 74 
46 76 
46 77 
46 80 
46 82 
46 84 
46 85 
46 87 
46 90 
46 92 
46 93 
46 95 
46 97 
46 100 
46 101 
46 104 
46 105 
46 108 
46 109 
46 111 
46 113 
46 115 
46 117 
46 119 
46 122 
46 123 
46 126 
46 128 
46 129 
46 131 
46 134 
46 135 
46 138 
46 139 
46 142 
46 144 
47 48 
47 74 
47 75 
47 77 
47 80 
47 81 
47 83 
47 86 
47 87 
47 90 
47 92 
47 94 
47 95 
47 97 
47 99 
47 101 
47 104 
47 105 
47 108 
47 110 
47 112 
47 114 
47 116 
47 117 
47 119 
47 121 
47 124 
47 125 
47 127 
47 130 
47 132 
47 134 
47 136 
47 138 
47 139 
47 142 
47 143 
48 73 
48 76 
48 78 
48 79 
48 82 
48 84 
48 85 
48 88 
48 89 
48 91 
48 93 
48 96 
48 98 
48 100 
48 102 
48 103 
48 106 
48 107 
48 109 
48 111 
48 113 
48 115 
48 118 
48 120 
48 122 
48 123 
48 126 
48 128 
48 129 
48 131 
48 133 
48 135 
48 137 
48 140 
48 141 
48 144 
49 50 
49 73 
49 76 
49 78 
49 80 
49 81 
49 84 
49 86 
49 87 
49 89 
49 92 
49 94 
49 96 
49 98 
49 99 
49 101 
49 104 
49 105 
49 107 
49 109 
49 111 
49 113 
49 115 
49 118 
49 119 
49 121 
49 124 
49 125 
49 128 
49 130 
49 131 
49 133 
49 136 
49 137 
49 139 
49 142 
49 144 
50 74 
50 75 
50 77 
50 79 
50 82 
50 83 
50 85 
50 88 
50 90 
50 91 
50 93 
50 95 
50 97 
50 100 
50 102 
50 103 
50 106 
50 108 
50 110 
50 112 
50 114 
50 116 
50 117 
50 120 
50 122 
50 123 
50 126 
50 127 
50 129 
50 132 
50 134 
50 135 
50 138 
50 140 
50 141 
50 143 
51 52 
51 73 
51 75 
51 78 
51 79 
51 82 
51 83 
51 85 
51 87 
51 90 
51 92 
51 93 
51 95 
51 98 
51 100 
51 101 
51 103 
51 106 
51 107 
51 110 
51 112 
51 113 
51 115 
51 118 
51 119 
51 121 
51 124 
51 126 
51 128 
51 130 
51 131 
51 134 
51 136 
51 138 
51 139 
51 141 
51 143 
52 74 
52 76 
52 77 
52 80 
52 81 
52 84 
52 86 
52 88 
52 89 
52 91 
52 94 
52 96 
52 97 
52 99 
52 102 
52 104 
52 105 
52 108 
52 109 
52 111 
52 114 
52 116 
52 117 
52 120 
52 122 
52 123 
52 125 
52 127 
52 129 
52 132 
52 133 
52 135 
52 137 
52 140 
52 142 
52 144 
53 54 
53 73 
53 75 
53 77 
53 80 
53 82 
53 84 
53 85 
53 87 
53 89 
53 91 
53 94 
53 95 
53 98 
53 99 
53 101 
53 103 
53 105 
53 107 
53 109 
53 111 
53 114 
53 116 
53 117 
53 120 
53 122 
53 124 
53 126 
53 128 
53 130 
53 132 
53 134 
53 136 
53 138 
53 140 
53 141 
53 144 
54 74 
54 76 
54 78 
54 79 
54 81 
54 83 
54 86 
54 88 
54 90 
54 92 
54 93 
54 96 
54 97 
54 100 
54 102 
54 104 
54 106 
54 108 
54 110 
54 112 
54 113 
54 115 
54 118 
54 119 
54 121 
54 123 
54 125 
54 127 
54 129 
54 131 
54 133 
54 135 
54 137 
54 139 
54 142 
54 143 
55 56 
55 74 
55 76 
55 78 
55 79 
55 82 
55 84 
55 86 
55 88 
55 90 
55 92 
55 94 
55 96 
55 97 
55 99 
55 102 
55 103 
55 106 
55 108 
55 110 
55 111 
55 113 
55 116 
55 117 
55 120 
55 121 
55 124 
55 126 
55 128 
55 130 
55 131 
55 134 
55 136 
55 138 
55 140 
55 142 
55 144 
56 73 
56 75 
56 77 
56 80 
56 81 
56 83 
56 85 
56 87 
56 89 
56 91 
56 93 
56 95 
56 98 
56 100 
56 101 
56 104 
56 105 
56 107 
56 109 
56 112 
56 114 
56 115 
56 118 
56 119 
56 122 
56 123 
56 125 
56 127 
56 129 
56 132 
56 133 
56 135 
56 137 
56 139 
56 141 
56 143 
57 58 
57 73 
57 76 
57 77 
57 79 
57 82 
57 83 
57 86 
57 87 
57 90 
57 92 
57 94 
57 95 
57 98 
57 100 
57 102 
57 104 
57 105 
57 107 
57 110 
57 111 
57 114 
57 115 
57 117 
57 120 
57 121 
57 123 
57 125 
57 127 
57 130 
57 131 
57 134 
57 135 
57 137 
57 140 
57 141 
57 144 
58 74 
58 75 
58 78 
58 80 
58 81 
58 84 
58 85 
58 88 
58 89 
58 91 
58 93 
58 96 
58 97 
58 99 
58 101 
58 103 
58 106 
58 108 
58 109 
58 112 
58 113 
58 116 
58 118 
58 119 
58 122 
58 124 
58 126 
58 128 
58 129 
58 132 
58 133 
58 136 
58 138 
58 139 
58 142 
58 143 
59 60 
59 74 
59 75 
59 77 
59 80 
59 81 
59 83 
59 85 
59 88 
59 89 
59 92 
59 93 
59 96 
59 98 
59 99 
59 101 
59 104 
59 106 
59 108 
59 110 
59 111 
59 114 
59 115 
59 118 
59 120 
59 121 
59 123 
59 125 
59 128 
59 129 
59 131 
59 134 
59 136 
59 138 
59 140 
59 141 
59 144 
60 73 
60 76 
60 78 
60 79 
60 82 
60 84 
60 86 
60 87 
60 90 
60 91 
60 94 
60 95 
60 97 
60 100 
60 102 
60 103 
60 105 
60 107 
60 109 
60 112 
60 113 
60 116 
60 117 
60 119 
60 122 
60 124 
60 126 
60 127 
60 130 
60 132 
60 133 
60 135 
60 137 
60 139 
60 142 
60 143 
61 62 
61 74 
61 75 
61 78 
61 80 
61 82 
61 84 
61 86 
61 87 
61 89 
61 92 
61 93 
61 95 
61 97 
61 100 
61 102 
61 103 
61 105 
61 108 
61 110 
61 111 
61 114 
61 116 
61 118 
61 119 
61 122 
61 123 
61 125 
61 128 
61 130 
61 131 
61 133 
61 136 
61 137 
61 140 
61 141 
61 143 
62 73 
62 76 
62 77 
62 79 
62 81 
62 83 
62 85 
62 88 
62 90 
62 91 
62 94 
62 96 
62 98 
62 99 
62 101 
62 104 
62 106 
62 107 
62 109 
62 112 
62 113 
62 115 
62 117 
62 120 
62 121 
62 124 
62 126 
62 127 
62 129 
62 132 
62 134 
62 135 
62 138 
62 139 
62 142 
62 144 
63 64 
63 74 
63 75 
63 78 
63 79 
63 82 
63 83 
63 86 
63 88 
63 89 
63 92 
63 93 
63 95 
63 98 
63 99 
63 102 
63 104 
63 105 
63 107 
63 109 
63 112 
63 114 
63 115 
63 117 
63 119 
63 122 
63 124 
63 126 
63 127 
63 129 
63 131 
63 133 
63 136 
63 138 
63 140 
63 142 
63 144 
64 73 
64 76 
64 77 
64 80 
64 81 
64 84 
64 85 
64 87 
64 90 
64 91 
64 94 
64 96 
64 97 
64 100 
64 101 
64 103 
64 106 
64 108 
64 110 
64 111 
64 113 
64 116 
64 118 
64 120 
64 121 
64 123 
64 125 
64 128 
64 130 
64 132 
64 134 
64 135 
64 137 
64 139 
64 141 
64 143 
65 66 
65 73 
65 76 
65 77 
65 79 
65 82 
65 83 
65 86 
65 87 
65 89 
65 92 
65 93 
65 96 
65 97 
65 99 
65 101 
65 104 
65 106 
65 108 
65 109 
65 111 
65 114 
65 116 
65 118 
65 120 
65 122 
65 124 
65 126 
65 127 
65 130 
65 131 
65 133 
65 135 
65 138 
65 139 
65 141 
65 143 
66 74 
66 75 
66 78 
66 80 
66 81 
66 84 
66 85 
66 88 
66 90 
66 91 
66 94 
66 95 
66 98 
66 100 
66 102 
66 103 
66 105 
66 107 
66 110 
66 112 
66 113 
66 115 
66 117 
66 119 
66 121 
66 123 
66 125 
66 128 
66 129 
66 132 
66 134 
66 136 
66 137 
66 140 
66 142 
66 144 
67 68 
67 73 
67 76 
67 78 
67 80 
67 81 
67 83 
67 86 
67 88 
67 90 
67 92 
67 93 
67 96 
67 97 
67 99 
67 101 
67 103 
67 105 
67 107 
67 110 
67 111 
67 114 
67 115 
67 117 
67 119 
67 122 
67 124 
67 126 
67 128 
67 129 
67 132 
67 134 
67 135 
67 137 
67 140 
67 141 
67 143 
68 74 
68 75 
68 77 
68 79 
68 82 
68 84 
68 85 
68 87 
68 89 
68 91 
68 94 
68 95 
68 98 
68 100 
68 102 
68 104 
68 106 
68 108 
68 109 
68 112 
68 113 
68 116 
68 118 
68 120 
68 121 
68 123 
68 125 
68 127 
68 130 
68 131 
68 133 
68 136 
68 138 
68 139 
68 142 
68 144 
69 70 
69 73 
69 75 
69 77 
69 79 
69 82 
69 84 
69 86 
69 88 
69 90 
69 91 
69 93 
69 96 
69 97 
69 99 
69 102 
69 104 
69 105 
69 108 
69 109 
69 112 
69 114 
69 115 
69 118 
69 119 
69 121 
69 123 
69 126 
69 128 
69 130 
69 132 
69 134 
69 136 
69 137 
69 139 
69 141 
69 144 
70 74 
70 76 
70 78 
70 80 
70 81 
70 83 
70 85 
70 87 
70 89 
70 92 
70 94 
70 95 
70 98 
70 100 
70 101 
70 103 
70 106 
70 107 
70 110 
70 111 
70 113 
70 116 
70 117 
70 120 
70 122 
70 124 
70 125 
70 127 
70 129 
70 131 
70 133 
70 135 
70 138 
70 140 
70 142 
70 143 
71 72 
71 73 
71 75 
71 78 
71 80 
71 81 
71 83 
71 86 
71 87 
71 90 
71 92 
71 93 
71 96 
71 98 
71 100 
71 102 
71 103 
71 105 
71 108 
71 109 
71 111 
71 113 
71 116 
71 117 
71 120 
71 121 
71 123 
71 126 
71 127 
71 129 
71 132 
71 133 
71 136 
71 138 
71 139 
71 141 
71 144 
72 74 
72 76 
72 77 
72 79 
72 82 
72 84 
72 85 
72 88 
72 89 
72 91 
72 94 
72 95 
72 97 
72 99 
72 101 
72 104 
72 106 
72 107 
72 110 
72 112 
72 114 
72 115 
72 118 
72 119 
72 122 
72 124 
72 125 
72 128 
72 130 
72 131 
72 134 
72 135 
72 137 
72 140 
72 142 
72 143 
73 74 
75 76 
77 78 
79 80 
81 82 
83 84 
85 86 
87 88 
89 90 
91 92 
93 94 
95 96 
97 98 
99 100 
101 102 
103 104 
105 106 
107 108 
109 110 
111 112 
113 114 
115 116 
117 118 
119 120 
121 122 
123 124 
125 126 
127 128 
129 130 
131 132 
133 134 
135 136 
137 138 
139 140 
141 142 
143 144 
